Minimize
  obj: x0 + x1 + x2 + x3 + x4

Subject To
  c0: x2 + x3 + x4 = 132
  c1: x0 + x2 + x3 = 139
  c2: x1 + x2 + x3 = 125
  c3: x1 + x3 + x4 = 21
  c4: x1 + x3 = 13
  c5: x0 + x1 + x2 = 128
  c6: x0 + x1 + x3 = 28

Bounds
  x0 >= 0
  x1 >= 0
  x2 >= 0
  x3 >= 0
  x4 >= 0

Generals
  x0 x1 x2 x3 x4

End
